Maximize
  obj: -9 x0 +3 x1 +1 x2 -5 x3 -2 x4 -6 x5 -1 x6 +8 x7 -3 x8 -3 x9 -2 x10 +9 x11 -2 x12 -10 x13 -4 x14 +7 x15 -8 x16 -1 x17 -3 x18 -6 x19 +170 x20 +99 x21 -34 x22 +62 x23 -195 x24 +38 x25 -53 x26 +128 x27 -33 x28 -134 x29 +129 x30 +75 x31 -193 x32 +70 x33 -132 x34 -23 x35 +47 x36 -139 x37 +66 x38 +124 x39 
Subject to
  c1: +18 x0 +0 x1 +13 x2 +0 x3 +8 x4 +0 x5 +16 x6 +0 x7 +7 x8 +0 x9 +16 x10 +9 x11 +5 x12 +0 x13 +20 x14 +12 x15 +8 x16 +0 x17 +0 x18 +0 x19 +13 x20 <= 94
  c2: +0 x0 +2 x1 +15 x2 +0 x3 +0 x4 +3 x5 +11 x6 +20 x7 +0 x8 +20 x9 +0 x10 +6 x11 +0 x12 +0 x13 +0 x14 +0 x15 +0 x16 +12 x17 +17 x18 +12 x19 +8 x21 <= 79
  c3: +15 x0 +7 x1 +0 x2 +0 x3 +0 x4 +0 x5 +14 x6 +8 x7 +13 x8 -1 x9 +9 x10 +0 x11 +0 x12 +0 x13 +20 x14 +14 x15 +9 x16 +12 x17 +0 x18 +0 x19 +7 x22 <= 59
  c4: +0 x0 +17 x1 +18 x2 +20 x3 +0 x4 +0 x5 +3 x6 +0 x7 +0 x8 +0 x9 +0 x10 +0 x11 +0 x12 +0 x13 +0 x14 +3 x15 +20 x16 +0 x17 +4 x18 +0 x19 +5 x23 <= 73
  c5: +0 x0 +16 x1 +0 x2 +0 x3 +0 x4 +0 x5 +7 x6 +10 x7 +0 x8 +1 x9 +20 x10 +20 x11 +11 x12 +0 x13 +0 x14 +8 x15 +0 x16 +3 x17 +0 x18 +11 x19 +19 x24 <= 84
  c6: +19 x0 +0 x1 +18 x2 +0 x3 +0 x4 +0 x5 +0 x6 +0 x7 +6 x8 +1 x9 +19 x10 +0 x11 +15 x12 +0 x13 +9 x14 +5 x15 +20 x16 +0 x17 +11 x18 +18 x19 -1 x25 <= 73
  c7: +9 x0 +8 x1 +5 x2 +3 x3 +0 x4 +0 x5 +0 x6 +0 x7 +0 x8 +0 x9 +0 x10 +0 x11 +15 x12 +0 x13 +0 x14 +20 x15 +8 x16 +0 x17 +0 x18 +0 x19 +20 x26 <= 53
  c8: +19 x0 +15 x1 +0 x2 +0 x3 -1 x4 +8 x5 +0 x6 +0 x7 +0 x8 +17 x9 +16 x10 +0 x11 +0 x12 +6 x13 +5 x14 +0 x15 +0 x16 +14 x17 +11 x18 +0 x19 +3 x27 <= 79
  c9: +0 x0 +0 x1 +14 x2 +12 x3 +0 x4 +6 x5 +17 x6 +0 x7 +10 x8 +0 x9 +18 x10 +0 x11 +10 x12 +0 x13 +11 x14 +0 x15 +0 x16 +0 x17 +0 x18 +0 x19 +7 x28 <= 66
  c10: +15 x0 +3 x1 +0 x2 +0 x3 +0 x4 +14 x5 +17 x6 +0 x7 +0 x8 +15 x9 +0 x10 +5 x11 +0 x12 +17 x13 +0 x14 +0 x15 +0 x16 +17 x17 +0 x18 +0 x19 +6 x29 <= 100
  c11: +11 x0 +17 x1 +10 x2 +0 x3 +0 x4 +0 x5 +0 x6 +9 x7 +0 x8 +9 x9 +0 x10 +0 x11 +14 x12 +2 x13 +0 x14 +1 x15 +0 x16 +0 x17 +0 x18 +3 x19 +16 x30 <= 71
  c12: +0 x0 +0 x1 +11 x2 +0 x3 +0 x4 +0 x5 +0 x6 +0 x7 +0 x8 +0 x9 +0 x10 +3 x11 +9 x12 +0 x13 -1 x14 +0 x15 +0 x16 +0 x17 +16 x18 +9 x19 +9 x31 <= 56
  c13: +18 x0 +4 x1 +0 x2 +0 x3 +19 x4 +0 x5 +0 x6 +0 x7 +0 x8 +1 x9 +13 x10 +0 x11 +7 x12 +0 x13 +0 x14 +0 x15 +7 x16 +0 x17 +1 x18 +0 x19 +1 x32 <= 56
  c14: +4 x0 +0 x1 +0 x2 +0 x3 +0 x4 +0 x5 +0 x6 +0 x7 +4 x8 +14 x9 +0 x10 +20 x11 +0 x12 +0 x13 +0 x14 +0 x15 +16 x16 +0 x17 +0 x18 +0 x19 +19 x33 <= 95
  c15: +14 x0 +0 x1 +0 x2 +5 x3 +0 x4 +1 x5 -1 x6 +19 x7 +9 x8 +17 x9 +0 x10 +0 x11 +16 x12 +5 x13 +0 x14 +16 x15 +0 x16 +7 x17 +17 x18 +0 x19 +11 x34 <= 59
  c16: +3 x0 +4 x1 +0 x2 +0 x3 +19 x4 +0 x5 +1 x6 +0 x7 +14 x8 +0 x9 +0 x10 +14 x11 +0 x12 -1 x13 +0 x14 +0 x15 +0 x16 +19 x17 +0 x18 +0 x19 +18 x35 <= 75
  c17: +0 x0 +4 x1 +0 x2 +15 x3 +0 x4 +0 x5 +0 x6 +0 x7 +11 x8 +20 x9 +12 x10 +19 x11 +19 x12 +0 x13 +0 x14 +20 x15 +0 x16 +16 x17 +20 x18 +13 x19 +3 x36 <= 55
  c18: +0 x0 +13 x1 +10 x2 +0 x3 +13 x4 +11 x5 +0 x6 +0 x7 +8 x8 +5 x9 +0 x10 +0 x11 +0 x12 +0 x13 +8 x14 +0 x15 +6 x16 -1 x17 +0 x18 +0 x19 +12 x37 <= 75
  c19: +0 x0 +0 x1 +0 x2 +9 x3 +0 x4 +0 x5 +17 x6 +0 x7 +11 x8 +0 x9 +0 x10 +0 x11 +0 x12 +4 x13 +20 x14 +0 x15 +0 x16 +0 x17 +0 x18 +0 x19 +2 x38 <= 88
  c20: +0 x0 +13 x1 +0 x2 +5 x3 +0 x4 +16 x5 +20 x6 +0 x7 +0 x8 +0 x9 +0 x10 +15 x11 +0 x12 +0 x13 +1 x14 +2 x15 +15 x16 +0 x17 +0 x18 +0 x19 +4 x39 <= 85
  c21: +8 x0 +12 x1 +4 x2 +16 x3 +0 x4 +0 x5 +0 x6 +0 x7 +20 x8 +0 x9 +15 x10 +0 x11 +0 x12 +0 x13 +0 x14 +7 x15 +14 x16 +7 x17 +6 x18 +0 x19 <= 84
  c22: +15 x0 +0 x1 +0 x2 +16 x3 +0 x4 +0 x5 -1 x6 +0 x7 +0 x8 +15 x9 +0 x10 +0 x11 +3 x12 +5 x13 +0 x14 +20 x15 +0 x16 +0 x17 +16 x18 +0 x19 <= 81
  c23: +0 x0 -1 x1 +6 x2 +4 x3 +0 x4 +0 x5 +1 x6 +10 x7 +16 x8 +3 x9 +16 x10 +10 x11 -1 x12 +8 x13 +0 x14 +0 x15 +0 x16 +5 x17 +0 x18 +0 x19 <= 57
  c24: +0 x0 +0 x1 +0 x2 +7 x3 +0 x4 +0 x5 +6 x6 +9 x7 +9 x8 +0 x9 +0 x10 +10 x11 +0 x12 +0 x13 +0 x14 +10 x15 +2 x16 +0 x17 +0 x18 +8 x19 <= 63
  c25: +0 x0 +16 x1 +12 x2 +0 x3 +7 x4 +0 x5 +0 x6 +14 x7 +0 x8 +5 x9 +11 x10 +0 x11 +0 x12 +1 x13 +0 x14 +18 x15 +5 x16 +0 x17 -1 x18 +13 x19 <= 100
  c26: +17 x0 +10 x1 +0 x2 +14 x3 +0 x4 +2 x5 +13 x6 +20 x7 +0 x8 +0 x9 +0 x10 +0 x11 +14 x12 +0 x13 +0 x14 +0 x15 +0 x16 +19 x17 +4 x18 +13 x19 <= 90
  c27: +0 x0 +4 x1 +0 x2 +0 x3 +0 x4 +0 x5 +0 x6 +0 x7 +0 x8 +8 x9 +6 x10 +0 x11 +0 x12 +0 x13 +16 x14 +0 x15 +0 x16 +0 x17 +0 x18 +0 x19 <= 50
  c28: +0 x0 +0 x1 +1 x2 +16 x3 +0 x4 +5 x5 +0 x6 +0 x7 +0 x8 +8 x9 +0 x10 +8 x11 +0 x12 +13 x13 +14 x14 +0 x15 +0 x16 -1 x17 +20 x18 +14 x19 <= 89
  c29: +14 x0 +2 x1 +18 x2 +0 x3 +6 x4 +5 x5 +0 x6 +18 x7 +0 x8 +0 x9 +0 x10 +0 x11 +0 x12 +0 x13 +0 x14 +18 x15 +0 x16 +0 x17 +14 x18 +0 x19 <= 84
  c30: +0 x0 +0 x1 +3 x2 +0 x3 +17 x4 +0 x5 +0 x6 +10 x7 +0 x8 +7 x9 +0 x10 +0 x11 +4 x12 +0 x13 +0 x14 +0 x15 +19 x16 +8 x17 +0 x18 +0 x19 <= 76
  c31: +0 x0 +0 x1 +0 x2 +1 x3 +3 x4 +6 x5 +1 x6 +6 x7 +0 x8 +7 x9 +2 x10 +0 x11 +8 x12 +0 x13 +3 x14 +4 x15 +0 x16 +13 x17 +14 x18 +15 x19 <= 79
  c32: +0 x0 +2 x1 +0 x2 +6 x3 +0 x4 +0 x5 +0 x6 +9 x7 +0 x8 +6 x9 +0 x10 +0 x11 +0 x12 -1 x13 +0 x14 +0 x15 +19 x16 +4 x17 +18 x18 +0 x19 <= 77
  c33: +0 x0 +0 x1 +0 x2 +8 x3 +19 x4 +8 x5 +0 x6 +18 x7 +0 x8 +0 x9 +2 x10 +7 x11 +0 x12 +0 x13 +4 x14 +4 x15 +0 x16 +0 x17 +15 x18 -1 x19 <= 79
  c34: +18 x0 +6 x1 +0 x2 +14 x3 +11 x4 +3 x5 +0 x6 +13 x7 +0 x8 +0 x9 +0 x10 +4 x11 +0 x12 +0 x13 +0 x14 +0 x15 +9 x16 +0 x17 +7 x18 +0 x19 <= 88
  c35: +0 x0 +0 x1 +0 x2 +0 x3 +11 x4 +15 x5 +0 x6 +2 x7 +0 x8 +0 x9 +5 x10 +16 x11 +0 x12 +0 x13 +0 x14 +6 x15 +1 x16 +0 x17 +0 x18 +0 x19 <= 100
  c36: +2 x0 +16 x1 +0 x2 +0 x3 +0 x4 +10 x5 +0 x6 +0 x7 +0 x8 +17 x9 +0 x10 +0 x11 +0 x12 +0 x13 +0 x14 +0 x15 -1 x16 +1 x17 +0 x18 +0 x19 <= 87
  c37: -1 x0 +2 x1 +12 x2 +0 x3 +16 x4 +0 x5 +0 x6 +8 x7 +0 x8 +11 x9 +12 x10 +12 x11 +0 x12 -1 x13 +10 x14 +4 x15 +8 x16 +7 x17 +0 x18 +0 x19 <= 60
  c38: +0 x0 +4 x1 +0 x2 +4 x3 +0 x4 +3 x5 +19 x6 +14 x7 +3 x8 +20 x9 +0 x10 +19 x11 +0 x12 +12 x13 +0 x14 +0 x15 +3 x16 +0 x17 +0 x18 +0 x19 <= 78
  c39: +0 x0 +0 x1 +1 x2 +0 x3 +0 x4 +0 x5 -1 x6 +0 x7 +0 x8 +0 x9 +0 x10 +0 x11 +2 x12 +0 x13 +0 x14 +11 x15 +0 x16 +4 x17 +1 x18 +0 x19 <= 66
  c40: + x20 + x21 + x22 + x23 + x24 + x25 + x26 + x27 + x28 + x29 + x30 + x31 + x32 + x33 + x34 + x35 + x36 + x37 + x38 + x39 <= 6.666667
Binary
 x20
 x21
 x22
 x23
 x24
 x25
 x26
 x27
 x28
 x29
 x30
 x31
 x32
 x33
 x34
 x35
 x36
 x37
 x38
 x39
End
